
25
7139

906 845
748 758
337 421
223 259
514 512
492 405
705 784
314 304
519 477
594 584
972 909
513 505
375 282
777 756
637 619
240 251
929 910
960 983
826 811
861 903
249 311
667 730
922 899
715 684
468 473
